language ESSENCE' 1.0

letting fixed be 
[
    [0,0,0,9,0,8,4,3,0],
    [0,0,4,7,0,2,6,8,0],
    [0,8,1,0,5,4,0,0,2],
    [0,0,5,0,0,3,1,2,9],
    [0,0,0,5,2,0,3,0,8],
    [0,0,0,0,9,0,5,6,0],
    [0,0,0,0,7,9,8,1,0],
    [0,1,7,0,0,5,0,0,6],
    [4,0,0,1,0,6,0,5,0]
]